tsp_instances/TSP20/instance91.tsp
NODE_COORD_SECTION
0 54 62
1 71 124
2 29 60
3 154 95
4 7 159
5 84 58
6 116 130
7 14 98
8 171 143
9 168 78
10 9 151
11 10 90
12 142 99
13 85 0
14 126 101
15 18 135
16 104 72
17 155 141
18 49 169
19 101 174
