tsp_instances/TSP20/instance91.opt.tour
TOUR_SECTION
1
3
12
8
16
11
5
19
2
20
7
18
9
10
4
13
15
17
6
14
-1